Period = 14;

TSS_period = 650;
TSSb_period = 650;
TSSr_period = 650;
TSSs_period = 650;

CTLconst = 42;
ATLconst = 7;
CTLramp = 4;

CTL_0 = 50;
CTLb_0 = 28;
CTLr_0 = 10;
CTLs_0 = 12;

ATL_0 = 48;
ATLb_0 = 20;
ATLr_0 = 13;
ATLs_0 = 15;